Version identifier: 22.1.0.0 | 2022-03-09 | 1a383f8ce
CPXPARAM_Threads                                 1
CPXPARAM_MIP_Strategy_VariableSelect             3
CPXPARAM_TimeLimit                               600
Tried aggregator 1 time.
MIP Presolve eliminated 371 rows and 1080 columns.
Reduced MIP has 2161 rows, 3241 columns, and 29018 nonzeros.
Reduced MIP has 3240 binaries, 0 generals, 0 SOSs, and 0 indicators.
Presolve time = 0.02 sec. (12.44 ticks)
Found incumbent of value 11.000000 after 0.05 sec. (31.70 ticks)
Probing time = 0.01 sec. (5.50 ticks)
Tried aggregator 1 time.
Detecting symmetries...
Reduced MIP has 2161 rows, 3241 columns, and 29018 nonzeros.
Reduced MIP has 3240 binaries, 0 generals, 0 SOSs, and 0 indicators.
Presolve time = 0.02 sec. (12.97 ticks)
Probing time = 0.00 sec. (5.50 ticks)
Clique table members: 362.
MIP emphasis: balance optimality and feasibility.
MIP search method: dynamic search.
Parallel mode: none, using 1 thread.
Root relaxation solution time = 0.02 sec. (13.40 ticks)

        Nodes                                         Cuts/
   Node  Left     Objective  IInf  Best Integer    Best Bound    ItCnt     Gap

*     0+    0                           11.0000        0.0000           100.00%
      0     0        0.0000    64       11.0000        0.0000      579  100.00%
*     0+    0                            1.0000        0.0000           100.00%
*     0+    0                            0.0000        0.0000             0.00%
      0     0        cutoff              0.0000        0.0000      579    0.00%
Elapsed time = 0.15 sec. (119.12 ticks, tree = 0.01 MB, solutions = 3)

Root node processing (before b&c):
  Real time             =    0.15 sec. (119.31 ticks)
Sequential b&c:
  Real time             =    0.00 sec. (0.00 ticks)
                          ------------
Total (root+branch&cut) =    0.15 sec. (119.31 ticks)
Primal:	0
Dual:	0
Status:	Optimal
Time:	0.18
Sequence:
	5
	9
	5
	9
	5
	4
	9
	9
	5
	4
	9
	4
	5
	9
	5
	9
	5
	9
	9
	5
	9
	9
	9
	9
	9
	9
	9
	9
	9
	9
	9
	9
	9
	9
	9
	9
	4
	5
	9
	9
	9
	9
	9
	9
	9
	9
	9
	9
	9
	9
	9
	9
	9
	9
	9
	9
	9
	9
	9
	9
	5
	9
	4
	9
	9
	9
	9
	0
	5
	9
	0
	1
	9
	5
	9
	11
	0
	5
	9
	0
	5
	4
	0
	4
	9
	4
	5
	9
	5
	4
	0
	5
	4
	9
	5
	0
	5
	9
	4
	0
	9
	9
	9
	4
	4
	0
	5
	9
	11
	0
	5
	4
	9
	1
	4
	5
	0
	4
	5
	9
	5
	0
	5
	9
	0
	9
	5
	9
	4
	5
	9
	5
	0
	4
	5
	9
	0
	5
	4
	10
	0
	5
	4
	0
	5
	9
	5
	9
	5
	0
	5
	4
	9
	1
	4
	0
	5
	4
	1
	9
	0
	1
	4
	9
	0
	9
	1
	0
	11
	9
	5
	0
	9
	5
	0
	1
	4
	5
	9
	5
	0
	5
	4
	3
	0
	4
	1
	4
	9
	5
	4
	9
	4
	5
	0
	9
	5
	4
	0
	9
	9
	4
	0
	5
	9
	5
	0
	5
	9
	5
	9
	4
	1
	4
	4
	0
	5
	4
	9
	0
	4
	11
	9
	4
	0
	1
	4
	5
	9
	9
	5
	0
	3
	4
	0
	5
	9
	9
	9
	4
	9
	9
	1
	0
	5
	9
	5
	9
	5
	0
	5
	9
	0
	5
	9
	4
	0
	4
	5
	9
	5
	2
	1
	4
	9
	1
	9
	1
	9
	5
	9
	5
	9
	5
	0
	5
	4
	9
	4
	0
	9
	5
	9
	9
	9
	4
	1
	0
	9
	5
	0
	9
	1
	9
	5
	0
	4
	1
	4
	5
	0
	5
	9
	0
	5
	4
	0
	5
	4
	0
	9
	4
	0
	9
	9
	9
	4
	5
	0
	4
	5
	0
	5
	9
	4
	4
	9
	0
	5
	4
	1
	0
	5
	4
	0
	4
	5
	0
	4
	5
	0
	9
	1
	4
	3
	4
	0
	1
	4
	5
	0
	4
	5
	9
	5
	0
	9
	5
	4
	9
